Total weight: 1551.6194782865193
Route 1: 0 2 45 5 8 46 4 3 1 70 100 0 
Route 2: 0 53 12 14 47 11 9 13 74 0 
Route 3: 0 98 10 15 16 97 17 78 0 
Route 4: 0 83 22 23 21 48 49 24 0 
Route 5: 0 33 28 27 26 30 32 50 91 80 0 
Route 6: 0 92 95 62 29 31 34 93 96 0 
Route 7: 0 42 44 39 40 36 37 35 43 68 0 
Route 8: 0 81 61 88 55 0 
Route 9: 0 66 84 18 19 20 56 0 
Route 10: 0 65 99 52 86 57 0 
Route 11: 0 72 71 94 67 41 38 54 0 
Route 12: 0 6 7 79 73 60 0 
Route 13: 0 64 51 85 63 76 89 0 
Route 14: 0 69 82 87 59 75 58 77 25 0 
Route 15: 0 90 0 
